69.92,34.0,125.0
48.53,28.0,71.0
37.64,26.0,59.0
31.67,24.0,45.0
27.4,17.0,38.0
23.82,15.0,33.0
20.44,16.0,30.0
17.75,13.0,27.0
16.71,10.0,26.0
15.23,11.0,25.0
13.81,7.0,30.0
11.51,6.0,18.0
9.74,6.0,19.0
8.92,5.0,17.0
8.54,5.0,15.0
7.72,5.0,16.0
6.99,4.0,13.0
7.31,4.0,16.0
6.57,4.0,17.0
5.83,3.0,13.0
6.14,3.0,14.0
5.68,3.0,19.0
5.01,3.0,13.0
3.91,1.0,23.0
3.46,1.0,12.0
2.79,1.0,10.0
2.75,1.0,12.0
2.49,1.0,7.0
2.11,0.0,10.0
